c Random 9-CNF over 40 variables and 160 clauses
c Generated with `cnfgen`
c (C) 2012-2016 Massimo Lauria <lauria.massimo@gmail.com>
c https://massimolauria.github.io/cnfgen
c
c COMMAND LINE: cnfgen --output tmp-9-40-160.dimacs --output-format dimacs randkcnf 9 40 160
c
c sdimacs generated by gen-sdimacs
c
p cnf 40 160
r 0.5 1 2 3 4 5 6 7 8 9 10 11 12 13 14 15 16 17 18 19 20 0
e  21 22 23 24 25 26 27 28 29 30 31 32 33 34 35 36 37 38 39 40 0
-2 9 -11 -12 14 21 27 -35 -38 0
-8 12 24 27 -29 32 -33 38 -39 0
2 6 -14 -26 -29 -33 34 -36 39 0
7 -10 11 -12 -13 32 -34 -36 38 0
1 -11 12 16 -18 -27 -36 39 40 0
-1 3 8 -9 18 -26 -30 -31 39 0
2 3 10 15 18 21 -30 36 38 0
-3 6 -7 -9 23 -29 -30 37 -39 0
-1 3 6 7 13 15 -23 -24 -26 0
3 -13 15 -16 -27 30 32 -34 -37 0
-2 -7 -8 -9 11 -28 34 -36 37 0
-2 -4 -16 22 -23 -28 -34 -38 -40 0
3 -4 -5 -18 -26 -27 30 31 33 0
7 -9 -13 19 -20 21 -26 -34 -37 0
-4 5 15 19 26 29 30 -33 40 0
3 11 12 15 -19 -32 33 -38 40 0
-5 20 22 24 -25 -33 -34 36 -37 0
-6 7 8 -11 16 -24 -31 -32 -36 0
2 7 16 21 -23 -29 32 -36 -38 0
-4 5 11 -15 -31 34 35 37 39 0
-8 -11 -12 -13 -18 -19 32 -34 36 0
5 6 7 19 27 -30 33 -34 37 0
-2 7 -23 -25 -26 27 28 29 32 0
-9 -13 -18 -19 -25 -27 -28 37 -40 0
-2 -5 12 13 20 21 -23 -27 38 0
6 7 -20 -21 22 -26 35 38 40 0
-5 7 12 -17 18 23 27 -33 -39 0
2 -3 -12 13 14 16 22 -32 40 0
-2 -6 10 11 -13 15 -21 27 -30 0
-1 3 20 25 26 27 -31 34 -39 0
8 10 17 20 -23 -25 -31 36 40 0
-2 17 -19 -22 23 -24 -27 -31 -39 0
2 -4 -6 -17 21 24 -25 29 39 0
-2 -7 12 18 20 -22 -23 25 28 0
6 -9 -12 15 -21 -25 -26 32 -38 0
13 -15 20 28 -29 33 -38 -39 -40 0
-1 4 7 -8 -17 23 25 -26 -37 0
-6 -8 -19 -21 26 -30 -32 -35 36 0
1 -6 7 -20 21 23 -26 33 -38 0
-1 -7 10 -25 29 -30 31 -38 -39 0
4 -7 -8 20 21 -31 -35 37 39 0
1 7 -9 -10 12 -15 -16 21 30 0
4 8 -9 -11 -13 -15 -18 22 34 0
-3 -6 9 -18 22 -23 -33 37 39 0
7 -8 -10 11 22 -26 29 30 -35 0
12 -16 -21 27 31 -34 -35 37 -40 0
2 -4 -8 -10 18 22 30 -32 38 0
-1 2 10 -12 -13 -14 31 -32 40 0
-2 10 -12 -14 -26 27 29 32 38 0
-1 -10 -12 23 -28 30 32 34 38 0
-13 15 -18 -19 22 28 -34 39 40 0
-3 9 11 16 25 26 30 38 -40 0
1 2 -10 13 20 -25 36 37 -39 0
2 9 11 -13 -23 27 30 -33 37 0
-2 -3 6 -7 -27 -29 30 33 -39 0
-5 7 8 12 -21 22 -27 33 36 0
3 9 15 18 -24 -28 34 -37 -39 0
-3 6 -8 12 16 -23 27 -36 -39 0
-10 -11 15 17 -22 25 -27 32 37 0
2 5 -6 10 14 -26 27 29 36 0
-2 -3 5 -7 -8 14 -28 30 36 0
4 12 13 15 -17 18 -22 33 37 0
2 3 4 14 17 -19 30 33 -35 0
-4 7 14 23 24 25 26 -33 36 0
-11 12 18 -20 -21 -22 -25 -29 36 0
-4 7 12 -13 -22 25 35 -36 -37 0
-3 -5 -11 -21 29 30 31 -32 -34 0
5 -8 -9 18 24 25 -26 27 -32 0
8 11 -13 -17 19 21 -27 -39 40 0
-1 3 -7 22 -29 31 32 34 -39 0
4 5 12 16 -18 26 29 -33 -40 0
-8 -11 15 17 -21 -26 -34 -35 -36 0
-8 -12 20 24 28 -29 30 -31 -33 0
-11 17 19 21 -26 -27 -33 -35 38 0
-2 5 8 -18 19 22 -26 27 30 0
-7 -8 -9 -12 14 -17 -20 -27 39 0
3 8 -9 -10 15 20 29 -33 -39 0
-7 -16 20 23 28 29 -30 32 38 0
6 -7 -8 -15 -24 28 29 -30 32 0
-2 13 -29 30 32 -34 -35 37 39 0
-5 7 -14 17 -22 27 -29 -32 -37 0
1 4 10 13 15 27 -29 -32 34 0
-4 -5 -9 -13 15 -22 -23 -27 -40 0
-8 9 -12 14 -18 -20 23 -32 35 0
9 -10 -13 14 19 -21 27 28 29 0
-5 8 9 13 -20 -22 -29 35 38 0
4 6 -7 -9 11 -26 -30 -32 36 0
2 -9 -11 -12 -14 -19 -33 34 37 0
-9 -11 15 18 -20 -21 24 -26 -38 0
1 -8 17 25 28 -31 -33 35 36 0
-2 -3 7 10 15 -25 28 -32 -35 0
2 9 10 -11 12 -15 -19 34 40 0
12 -17 -19 -22 26 28 -30 -33 35 0
2 -4 15 25 29 -30 -35 36 -39 0
-5 -13 -14 -15 23 24 32 -33 37 0
4 -9 13 17 18 21 26 -34 36 0
2 -3 -4 7 10 -13 -15 17 38 0
2 3 -5 11 -14 -21 -30 33 39 0
1 9 -13 -21 23 30 -32 -34 37 0
1 12 17 21 23 28 30 31 33 0
8 -10 -11 -12 -25 30 31 -33 39 0
1 11 14 -17 20 22 -26 -32 -36 0
-1 3 -6 -7 -15 19 -24 -29 36 0
3 11 -15 16 -28 -30 31 -36 -39 0
-2 4 12 19 -22 26 -28 39 40 0
3 4 -5 15 21 -34 -35 37 -39 0
3 -8 -18 19 -20 -25 -28 -34 35 0
8 -10 -22 24 25 28 -29 32 34 0
2 5 -9 -16 -20 23 -28 -35 39 0
5 -10 -15 -16 17 -18 20 25 -29 0
-1 5 7 20 21 -27 31 -34 -37 0
2 8 -17 22 23 26 -32 33 36 0
-8 -14 18 22 25 27 29 -34 -35 0
-1 -8 -16 -19 22 30 33 36 -38 0
-2 19 -20 -21 -22 23 27 35 -40 0
5 -7 19 25 -27 -29 31 37 -40 0
-3 -6 -7 10 22 24 29 30 35 0
-2 -4 -6 -9 -12 -13 -20 38 40 0
-2 -4 8 14 -22 -25 27 30 40 0
-1 5 9 13 14 16 -23 -25 -37 0
-11 19 -21 22 -23 -25 26 -27 -38 0
-1 -5 13 14 16 28 -35 38 -39 0
-1 10 11 -17 18 -19 -23 -26 28 0
-4 10 11 -18 -19 21 -30 -38 -40 0
1 3 -6 -10 -16 29 -31 -36 -39 0
-3 -7 -15 19 -24 28 -30 -32 -36 0
-3 -5 -9 14 23 -26 -29 34 -35 0
1 -16 -22 23 -25 26 -28 -32 -33 0
1 -3 -8 20 21 26 28 34 -39 0
3 -4 -16 17 19 21 -22 -29 35 0
5 6 8 -9 17 20 27 -36 -37 0
-1 3 4 -19 25 26 28 -30 34 0
2 5 -9 20 23 -24 25 -30 -39 0
-3 13 15 -18 -24 28 32 34 37 0
-3 6 7 19 23 25 27 29 -31 0
-5 11 -12 -23 24 -25 -28 38 -39 0
-13 20 -23 -24 26 -28 31 -34 35 0
-3 5 -9 -17 -19 21 22 25 33 0
-3 11 -19 -21 -36 37 38 -39 40 0
6 7 -9 -11 23 -27 -29 33 -34 0
1 -4 -12 -14 -16 -17 -26 -29 -30 0
1 2 13 17 -21 -27 -31 -35 -38 0
2 6 13 -17 23 31 -35 -37 -40 0
1 2 -6 -7 8 21 29 -31 35 0
-1 4 -5 -9 -15 21 -25 -27 -30 0
1 6 11 -12 16 -19 -20 22 27 0
1 -2 -9 10 -16 21 25 27 -40 0
1 4 -11 -15 17 -22 -26 -29 38 0
2 7 -8 10 15 -24 26 -28 32 0
-5 -8 20 22 23 -25 27 -30 -33 0
2 13 -14 15 17 -18 -24 30 -35 0
4 -7 -13 -16 22 -24 29 33 40 0
-8 9 13 -14 16 -19 22 34 38 0
-2 3 -7 -14 15 28 32 35 -37 0
2 -7 -12 -21 28 -33 -34 -37 40 0
-1 -6 -7 -8 -10 -15 -17 25 26 0
8 9 -16 -17 -23 25 28 36 -40 0
-10 -14 -16 -20 -22 -25 33 37 -40 0
-12 18 25 -26 29 -31 34 -37 -40 0
-17 19 21 -25 31 -33 -35 -36 -40 0
